language Essence 1.3

letting bot_end be [52, 123, 131, 25, 93, 77, 27, 22, 26, 150, 90, 2, 36, 117, 30, 96, 54, 59; int(1..18)]
letting bot_start be [32, 150, 24, 58, 103, 124, 59, 115, 145, 61, 144, 5, 14, 7, 84, 125, 132, 111; int(1..18)]
letting bots be 18
letting buffer_col be 2
letting buffer_row be 2
letting corridor_size be 1
letting n_shelves_col be 4
letting n_shelves_row be 3
letting shelf_col_size be 2
letting shelf_row_size be 1
